benchmarks/VRPTW/TSPTW/solution/n20w140.003.txt.solution
1 18 12 8 15 9 10 4 16 11 14 7 5 13 6 17 2 3 20 21 19 
236
